Problem:    
Rows:       105
Columns:    45 (34 integer, 34 binary)
Non-zeros:  302
Status:     INTEGER OPTIMAL
Objective:  value = 19.10241 (MINimum)

   No.   Row name        Activity     Lower bound   Upper bound
------ ------------    ------------- ------------- -------------
     1 r.5                   19.1024             0               
     2 r.6                  -1975.55      -1994.65               
     3 r.7                    2019.1             0               
     4 r.8                   -1980.9      -1989.27               
     5 r.9                    2019.1             0               
     6 r.10                 -1991.83      -1996.83               
     7 r.11                  19.1024             0               
     8 r.12                  8.37091      -1993.81               
     9 r.13                   2019.1             0               
    10 r.14                    -1995      -1998.22               
    11 r.15                  19.1024             0               
    12 r.16                  2.17721      -1996.53               
    13 r.17                   2019.1             0               
    14 r.18                  -1980.9      -1989.07               
    15 r.19                  19.1024             0               
    16 r.20                 -1.29159      -1982.29               
    17 r.21                   2019.1             0               
    18 r.22                 -1999.28      -1999.28               
    19 r.23                  19.1024             0               
    20 r.24                  0.72314      -1998.25               
    21 r.25                        1             1             = 
    22 r.26                        1             1             = 
    23 r.27                        1             1             = 
    24 r.28                        1             1             = 
    25 r.29                        1             1             = 
    26 r.30                  1983.72       3.16866               
    27 r.31                 -1983.72      -1994.65               
    28 r.32                  1989.27        6.1937               
    29 r.33                 -1989.27      -1989.27               
    30 r.34                  1980.55        1.7776               
    31 r.35                 -1980.55      -1994.65               
    32 r.36                  1983.07        3.4688               
    33 r.37                 -1983.07      -1989.27               
    34 r.38                  1994.65        10.933               
    35 r.39                 -1994.65      -1994.65               
    36 r.40                  1979.61       17.7119               
    37 r.41                 -1979.61      -1989.27               
    38 r.42                 -1976.27      -1992.15               
    39 r.43                 -1981.62      -1984.27               
    40 r.44                 -1976.27      -1992.15               
    41 r.45                 -1981.62      -1984.27               
    42 r.46                  16.2822       5.34919               
    43 r.47                 -16.2822      -1996.83               
    44 r.48                  10.7315       10.7315               
    45 r.49                 -10.7315      -1993.81               
    46 r.50                  1996.83        1.7776               
    47 r.51                 -1996.83      -1996.83               
    48 r.52                  1993.81        3.4688               
    49 r.53                 -1993.81      -1993.81               
    50 r.54                   10.933        10.933               
    51 r.55                  -10.933      -1996.83               
    52 r.56                  1990.34       17.7119               
    53 r.57                 -1990.34      -1993.81               
    54 r.58                 -1992.55      -1994.33               
    55 r.59                  7.64777      -1988.81               
    56 r.60                 -1992.55      -1994.33               
    57 r.61                  7.64777      -1988.81               
    58 r.62                  19.4509       5.34919               
    59 r.63                 -19.4509      -1998.22               
    60 r.64                  16.9252       10.7315               
    61 r.65                 -16.9252      -1996.53               
    62 r.66                  3.16866       3.16866               
    63 r.67                 -3.16866      -1998.22               
    64 r.68                   6.1937        6.1937               
    65 r.69                  -6.1937      -1996.53               
    66 r.70                  14.1017        10.933               
    67 r.71                 -14.1017      -1998.22               
    68 r.72                  1996.53       17.7119               
    69 r.73                 -1996.53      -1996.53               
    70 r.74                 -1995.72      -1995.72               
    71 r.75                  1.45407      -1991.53               
    72 r.76                 -1995.72      -1995.72               
    73 r.77                  1.45407      -1991.53               
    74 r.78                  5.34919       5.34919               
    75 r.79                 -5.34919      -1989.07               
    76 r.80                   20.394       10.7315               
    77 r.81                  -20.394      -1982.29               
    78 r.82                  1989.07       3.16866               
    79 r.83                 -1989.07      -1989.07               
    80 r.84                   9.6625        6.1937               
    81 r.85                  -9.6625      -1982.29               
    82 r.86                   1985.9        1.7776               
    83 r.87                  -1985.9      -1989.07               
    84 r.88                   3.4688        3.4688               
    85 r.89                  -3.4688      -1982.29               
    86 r.90                 -1981.62      -1986.57               
    87 r.91                 -2.01473      -1977.29               
    88 r.92                 -1981.62      -1986.57               
    89 r.93                 -2.01473      -1977.29               
    90 r.94                 -1976.27      -1992.15               
    91 r.95                 -1981.62      -1984.27               
    92 r.96                 -1976.27      -1992.15               
    93 r.97                 -1981.62      -1984.27               
    94 r.98                 -1992.55      -1994.33               
    95 r.99                  7.64777      -1988.81               
    96 r.100                -1992.55      -1994.33               
    97 r.101                 7.64777      -1988.81               
    98 r.102                -1995.72      -1995.72               
    99 r.103                 1.45407      -1991.53               
   100 r.104                -1995.72      -1995.72               
   101 r.105                 1.45407      -1991.53               
   102 r.106                -1981.62      -1986.57               
   103 r.107                -2.01473      -1977.29               
   104 r.108                -1981.62      -1986.57               
   105 r.109                -2.01473      -1977.29               

   No. Column name       Activity     Lower bound   Upper bound
------ ------------    ------------- ------------- -------------
     1 tt                    19.1024             0               
     2 s_1_1        *              0             0             1 
     3 t_1_1                 1994.65             0               
     4 s_2_1        *              1             0             1 
     5 t_2_1                       0             0               
     6 s_1_2        *              1             0             1 
     7 t_1_2                  10.933             0               
     8 s_2_2        *              0             0             1 
     9 t_2_2                 10.7315             0               
    10 s_1_3        *              1             0             1 
    11 t_1_3                 14.1017             0               
    12 s_2_3        *              0             0             1 
    13 t_2_3                 16.9252             0               
    14 s_1_4        *              1             0             1 
    15 t_1_4                       0             0               
    16 s_2_4        *              0             0             1 
    17 t_2_4                  20.394             0               
    18 s_1_5        *              1             0             1 
    19 t_1_5                 18.3793             0               
    20 s_2_5        *              0             0             1 
    21 t_2_5                 18.3793             0               
    22 u_1_1_2      *              0             0             1 
    23 u_2_1_2      *              1             0             1 
    24 u_1_1_3      *              0             0             1 
    25 u_2_1_3      *              1             0             1 
    26 u_1_1_4      *              0             0             1 
    27 u_2_1_4      *              1             0             1 
    28 u_1_2_1      *              1             0             1 
    29 u_2_2_1      *              0             0             1 
    30 u_1_2_3      *              1             0             1 
    31 u_2_2_3      *              1             0             1 
    32 u_1_2_4      *              0             0             1 
    33 u_2_2_4      *              1             0             1 
    34 u_1_3_1      *              1             0             1 
    35 u_2_3_1      *              0             0             1 
    36 u_1_3_2      *              0             0             1 
    37 u_2_3_2      *              0             0             1 
    38 u_1_3_4      *              0             0             1 
    39 u_2_3_4      *              1             0             1 
    40 u_1_4_1      *              1             0             1 
    41 u_2_4_1      *              0             0             1 
    42 u_1_4_2      *              1             0             1 
    43 u_2_4_2      *              0             0             1 
    44 u_1_4_3      *              1             0             1 
    45 u_2_4_3      *              0             0             1 

Integer feasibility conditions:

KKT.PE: max.abs.err = 0.00e+00 on row 0
        max.rel.err = 0.00e+00 on row 0
        High quality

KKT.PB: max.abs.err = 9.24e-14 on row 74
        max.rel.err = 1.45e-14 on row 74
        High quality

End of output
